p cnf 38 50
30 -34 36 0
33 -17 35 0
-10 -1 6 0
36 -20 -1 0
-22 -4 -12 0
-26 15 28 0
-38 26 20 0
5 -29 25 0
-30 -20 36 0
36 -1 -5 0
-30 -8 27 0
-29 -11 3 0
-4 -35 4 0
-9 -8 -23 0
25 30 -24 0
28 34 -26 0
30 -1 -5 0
-37 -37 12 0
24 -18 15 0
-6 13 33 0
27 34 29 0
-32 1 4 0
15 -35 38 0
29 10 8 0
9 29 -31 0
35 -23 -9 0
12 -20 -16 0
3 8 -1 0
-2 -9 -38 0
25 8 15 0
-37 -17 29 0
-32 14 22 0
25 6 -1 0
-4 -31 12 0
-24 -4 -25 0
-37 18 -20 0
23 24 -5 0
-22 -34 -17 0
-25 13 -17 0
-3 16 3 0
4 -3 30 0
7 -12 3 0
-14 -14 31 0
23 14 -4 0
38 11 -11 0
20 -16 13 0
-9 15 -25 0
-4 29 4 0
-15 -15 -18 0
11 -26 13 0
